c "996107.clq"
p edge 196 2880
e 1 17
e 1 18
e 1 19
e 1 20
e 1 22
e 1 23
e 1 25
e 1 26
e 1 27
e 1 28
e 1 30
e 1 31
e 1 32
e 1 34
e 1 37
e 1 38
e 1 39
e 1 40
e 1 41
e 1 44
e 1 45
e 1 49
e 1 56
e 1 58
e 1 61
e 1 63
e 1 64
e 1 71
e 1 75
e 1 78
e 1 82
e 1 86
e 1 88
e 1 94
e 1 96
e 1 97
e 1 100
e 1 106
e 1 108
e 1 112
e 1 113
e 1 120
e 1 121
e 1 141
e 1 145
e 1 152
e 1 157
e 1 158
e 1 159
e 1 162
e 1 164
e 1 168
e 1 174
e 1 181
e 1 183
e 1 188
e 1 189
e 1 193
e 2 17
e 2 18
e 2 19
e 2 21
e 2 22
e 2 23
e 2 24
e 2 26
e 2 27
e 2 30
e 2 32
e 2 34
e 2 35
e 2 36
e 2 37
e 2 43
e 2 50
e 2 55
e 2 58
e 2 66
e 2 73
e 2 76
e 2 78
e 2 87
e 2 94
e 2 100
e 2 101
e 2 111
e 2 112
e 2 128
e 2 140
e 2 152
e 2 167
e 2 169
e 2 178
e 2 191
e 2 194
e 3 17
e 3 18
e 3 19
e 3 20
e 3 21
e 3 22
e 3 24
e 3 25
e 3 28
e 3 33
e 3 34
e 3 52
e 3 53
e 3 55
e 3 59
e 3 69
e 3 72
e 3 75
e 3 77
e 3 84
e 3 98
e 3 99
e 3 103
e 3 104
e 3 117
e 3 118
e 3 127
e 3 129
e 3 132
e 3 140
e 3 143
e 3 164
e 3 185
e 3 190
e 3 196
e 4 17
e 4 20
e 4 21
e 4 24
e 4 25
e 4 40
e 4 78
e 4 84
e 4 121
e 4 124
e 4 129
e 4 148
e 4 151
e 4 190
e 5 17
e 5 18
e 5 19
e 5 20
e 5 21
e 5 23
e 5 24
e 5 27
e 5 28
e 5 29
e 5 30
e 5 32
e 5 33
e 5 36
e 5 41
e 5 44
e 5 45
e 5 77
e 5 90
e 5 98
e 5 116
e 5 126
e 5 131
e 5 136
e 5 152
e 5 157
e 5 166
e 5 172
e 5 176
e 5 192
e 6 17
e 6 18
e 6 19
e 6 20
e 6 22
e 6 23
e 6 32
e 6 33
e 6 47
e 6 51
e 6 56
e 6 57
e 6 59
e 6 61
e 6 65
e 6 70
e 6 73
e 6 85
e 6 103
e 6 117
e 6 127
e 6 137
e 6 144
e 6 150
e 6 158
e 6 160
e 6 175
e 7 17
e 7 18
e 7 19
e 7 20
e 7 21
e 7 22
e 7 23
e 7 24
e 7 25
e 7 28
e 7 34
e 7 37
e 7 39
e 7 43
e 7 45
e 7 46
e 7 48
e 7 49
e 7 54
e 7 55
e 7 62
e 7 68
e 7 73
e 7 74
e 7 79
e 7 85
e 7 102
e 7 124
e 7 128
e 7 133
e 7 139
e 7 143
e 7 146
e 7 148
e 7 152
e 7 156
e 7 164
e 7 174
e 7 175
e 7 179
e 7 187
e 7 195
e 8 17
e 8 18
e 8 19
e 8 21
e 8 23
e 8 24
e 8 25
e 8 26
e 8 30
e 8 32
e 8 44
e 8 45
e 8 48
e 8 53
e 8 57
e 8 65
e 8 70
e 8 72
e 8 77
e 8 84
e 8 101
e 8 114
e 8 133
e 8 136
e 8 142
e 8 158
e 8 180
e 8 183
e 9 17
e 9 18
e 9 19
e 9 20
e 9 21
e 9 25
e 9 26
e 9 28
e 9 31
e 9 34
e 9 35
e 9 37
e 9 38
e 9 43
e 9 44
e 9 48
e 9 54
e 9 56
e 9 57
e 9 58
e 9 69
e 9 81
e 9 83
e 9 94
e 9 98
e 9 107
e 9 123
e 9 133
e 9 151
e 9 156
e 9 164
e 9 175
e 10 17
e 10 18
e 10 19
e 10 21
e 10 22
e 10 24
e 10 28
e 10 47
e 10 50
e 10 61
e 10 67
e 10 92
e 10 113
e 10 125
e 10 191
e 11 17
e 11 18
e 11 19
e 11 20
e 11 21
e 11 22
e 11 25
e 11 26
e 11 32
e 11 33
e 11 34
e 11 36
e 11 37
e 11 39
e 11 41
e 11 42
e 11 43
e 11 44
e 11 47
e 11 48
e 11 53
e 11 58
e 11 59
e 11 67
e 11 69
e 11 70
e 11 71
e 11 75
e 11 77
e 11 82
e 11 84
e 11 86
e 11 89
e 11 93
e 11 94
e 11 97
e 11 100
e 11 102
e 11 105
e 11 108
e 11 112
e 11 113
e 11 115
e 11 123
e 11 130
e 11 133
e 11 134
e 11 146
e 11 161
e 11 170
e 11 194
e 12 17
e 12 18
e 12 19
e 12 20
e 12 21
e 12 22
e 12 23
e 12 26
e 12 31
e 12 33
e 12 37
e 12 38
e 12 39
e 12 43
e 12 45
e 12 46
e 12 47
e 12 50
e 12 53
e 12 54
e 12 60
e 12 62
e 12 71
e 12 75
e 12 81
e 12 82
e 12 86
e 12 87
e 12 95
e 12 105
e 12 118
e 12 123
e 12 126
e 12 127
e 12 131
e 12 134
e 12 139
e 12 142
e 12 144
e 12 149
e 12 156
e 12 159
e 12 163
e 12 176
e 12 188
e 13 17
e 13 18
e 13 19
e 13 20
e 13 21
e 13 22
e 13 23
e 13 24
e 13 25
e 13 27
e 13 30
e 13 31
e 13 32
e 13 33
e 13 36
e 13 37
e 13 39
e 13 40
e 13 41
e 13 42
e 13 43
e 13 46
e 13 59
e 13 60
e 13 66
e 13 67
e 13 69
e 13 71
e 13 85
e 13 88
e 13 90
e 13 108
e 13 116
e 13 120
e 13 132
e 13 136
e 13 143
e 13 151
e 13 169
e 13 179
e 13 182
e 13 192
e 13 194
e 14 17
e 14 18
e 14 19
e 14 20
e 14 24
e 14 26
e 14 28
e 14 29
e 14 32
e 14 33
e 14 40
e 14 48
e 14 53
e 14 57
e 14 61
e 14 69
e 14 72
e 14 87
e 14 94
e 14 99
e 14 109
e 14 115
e 14 116
e 14 122
e 14 124
e 14 131
e 14 133
e 14 135
e 14 137
e 14 139
e 14 141
e 14 146
e 14 154
e 14 158
e 14 177
e 15 17
e 15 18
e 15 19
e 15 20
e 15 22
e 15 23
e 15 26
e 15 27
e 15 29
e 15 31
e 15 32
e 15 36
e 15 40
e 15 41
e 15 45
e 15 50
e 15 52
e 15 53
e 15 55
e 15 57
e 15 58
e 15 66
e 15 73
e 15 91
e 15 93
e 15 95
e 15 98
e 15 101
e 15 103
e 15 115
e 15 122
e 15 123
e 15 130
e 15 145
e 15 147
e 15 155
e 15 165
e 15 167
e 16 17
e 16 18
e 16 20
e 16 21
e 16 22
e 16 23
e 16 24
e 16 26
e 16 27
e 16 28
e 16 29
e 16 30
e 16 31
e 16 33
e 16 35
e 16 36
e 16 37
e 16 39
e 16 41
e 16 42
e 16 46
e 16 47
e 16 50
e 16 52
e 16 53
e 16 63
e 16 67
e 16 69
e 16 78
e 16 86
e 16 88
e 16 89
e 16 93
e 16 101
e 16 104
e 16 110
e 16 136
e 16 139
e 16 140
e 16 148
e 16 159
e 16 177
e 16 180
e 16 181
e 16 191
e 16 195
e 17 18
e 17 19
e 17 20
e 17 21
e 17 22
e 17 23
e 17 24
e 17 25
e 17 26
e 17 27
e 17 28
e 17 29
e 17 30
e 17 32
e 17 33
e 17 34
e 17 36
e 17 37
e 17 39
e 17 42
e 17 46
e 17 47
e 17 50
e 17 51
e 17 52
e 17 53
e 17 55
e 17 56
e 17 63
e 17 64
e 17 65
e 17 66
e 17 67
e 17 71
e 17 73
e 17 74
e 17 85
e 17 86
e 17 89
e 17 93
e 17 96
e 17 97
e 17 99
e 17 102
e 17 105
e 17 106
e 17 111
e 17 115
e 17 116
e 17 119
e 17 120
e 17 121
e 17 124
e 17 125
e 17 126
e 17 128
e 17 135
e 17 139
e 17 143
e 17 151
e 17 152
e 17 155
e 17 157
e 17 160
e 17 162
e 17 167
e 17 172
e 17 173
e 17 174
e 17 175
e 17 179
e 17 181
e 17 184
e 17 188
e 17 190
e 18 19
e 18 20
e 18 21
e 18 22
e 18 23
e 18 24
e 18 25
e 18 26
e 18 27
e 18 29
e 18 31
e 18 32
e 18 33
e 18 35
e 18 38
e 18 39
e 18 40
e 18 41
e 18 42
e 18 45
e 18 46
e 18 49
e 18 50
e 18 51
e 18 52
e 18 53
e 18 55
e 18 57
e 18 62
e 18 64
e 18 65
e 18 68
e 18 71
e 18 72
e 18 74
e 18 77
e 18 78
e 18 81
e 18 84
e 18 87
e 18 88
e 18 89
e 18 92
e 18 93
e 18 94
e 18 95
e 18 96
e 18 99
e 18 100
e 18 101
e 18 103
e 18 104
e 18 108
e 18 110
e 18 114
e 18 115
e 18 117
e 18 124
e 18 125
e 18 128
e 18 153
e 18 155
e 18 156
e 18 159
e 18 162
e 18 164
e 18 168
e 18 183
e 18 184
e 18 186
e 18 192
e 19 20
e 19 21
e 19 22
e 19 23
e 19 24
e 19 25
e 19 27
e 19 28
e 19 29
e 19 30
e 19 31
e 19 32
e 19 35
e 19 36
e 19 39
e 19 40
e 19 41
e 19 45
e 19 46
e 19 48
e 19 51
e 19 52
e 19 53
e 19 54
e 19 59
e 19 62
e 19 63
e 19 64
e 19 65
e 19 66
e 19 67
e 19 71
e 19 72
e 19 74
e 19 75
e 19 77
e 19 80
e 19 82
e 19 85
e 19 86
e 19 89
e 19 93
e 19 94
e 19 104
e 19 109
e 19 110
e 19 111
e 19 113
e 19 115
e 19 120
e 19 121
e 19 122
e 19 124
e 19 127
e 19 130
e 19 133
e 19 134
e 19 136
e 19 137
e 19 140
e 19 142
e 19 146
e 19 147
e 19 154
e 19 163
e 19 166
e 19 171
e 19 172
e 19 174
e 19 176
e 19 178
e 19 186
e 19 190
e 19 193
e 20 21
e 20 22
e 20 23
e 20 24
e 20 25
e 20 26
e 20 27
e 20 28
e 20 29
e 20 30
e 20 31
e 20 32
e 20 33
e 20 36
e 20 37
e 20 38
e 20 39
e 20 40
e 20 41
e 20 42
e 20 43
e 20 46
e 20 47
e 20 50
e 20 54
e 20 56
e 20 57
e 20 59
e 20 61
e 20 62
e 20 65
e 20 66
e 20 68
e 20 69
e 20 70
e 20 73
e 20 75
e 20 79
e 20 80
e 20 81
e 20 90
e 20 91
e 20 92
e 20 99
e 20 109
e 20 112
e 20 113
e 20 119
e 20 127
e 20 138
e 20 146
e 20 155
e 20 158
e 20 160
e 20 162
e 20 174
e 20 178
e 20 184
e 20 189
e 20 191
e 20 196
e 21 22
e 21 23
e 21 24
e 21 25
e 21 26
e 21 27
e 21 28
e 21 29
e 21 30
e 21 31
e 21 32
e 21 34
e 21 36
e 21 38
e 21 44
e 21 48
e 21 49
e 21 56
e 21 61
e 21 62
e 21 63
e 21 64
e 21 65
e 21 71
e 21 75
e 21 79
e 21 88
e 21 96
e 21 97
e 21 99
e 21 100
e 21 105
e 21 111
e 21 112
e 21 114
e 21 117
e 21 118
e 21 123
e 21 124
e 21 131
e 21 134
e 21 137
e 21 143
e 21 168
e 21 185
e 21 190
e 21 195
e 22 23
e 22 24
e 22 25
e 22 26
e 22 27
e 22 28
e 22 29
e 22 31
e 22 33
e 22 34
e 22 35
e 22 36
e 22 37
e 22 38
e 22 40
e 22 41
e 22 42
e 22 43
e 22 46
e 22 50
e 22 51
e 22 52
e 22 53
e 22 54
e 22 56
e 22 57
e 22 60
e 22 63
e 22 67
e 22 68
e 22 69
e 22 73
e 22 76
e 22 79
e 22 85
e 22 86
e 22 88
e 22 90
e 22 92
e 22 95
e 22 96
e 22 98
e 22 100
e 22 102
e 22 104
e 22 105
e 22 108
e 22 109
e 22 110
e 22 111
e 22 118
e 22 120
e 22 122
e 22 132
e 22 133
e 22 140
e 22 141
e 22 144
e 22 153
e 22 156
e 22 157
e 22 159
e 22 170
e 22 171
e 22 180
e 22 183
e 22 188
e 22 189
e 22 190
e 22 191
e 22 195
e 23 25
e 23 27
e 23 28
e 23 29
e 23 31
e 23 33
e 23 34
e 23 35
e 23 39
e 23 41
e 23 43
e 23 45
e 23 51
e 23 55
e 23 58
e 23 59
e 23 63
e 23 72
e 23 76
e 23 78
e 23 79
e 23 82
e 23 86
e 23 92
e 23 96
e 23 99
e 23 105
e 23 107
e 23 110
e 23 114
e 23 116
e 23 117
e 23 119
e 23 129
e 23 132
e 23 139
e 23 142
e 23 147
e 23 149
e 23 151
e 23 154
e 23 161
e 23 163
e 23 167
e 23 178
e 23 179
e 23 189
e 23 194
e 24 25
e 24 26
e 24 27
e 24 28
e 24 29
e 24 30
e 24 31
e 24 32
e 24 33
e 24 34
e 24 35
e 24 36
e 24 37
e 24 40
e 24 41
e 24 44
e 24 52
e 24 53
e 24 55
e 24 60
e 24 62
e 24 63
e 24 64
e 24 66
e 24 72
e 24 75
e 24 76
e 24 78
e 24 86
e 24 97
e 24 101
e 24 103
e 24 106
e 24 107
e 24 113
e 24 115
e 24 121
e 24 124
e 24 126
e 24 127
e 24 130
e 24 131
e 24 133
e 24 135
e 24 136
e 24 137
e 24 140
e 24 146
e 24 150
e 24 161
e 24 163
e 24 166
e 24 167
e 24 168
e 24 172
e 24 173
e 24 177
e 24 187
e 24 191
e 24 192
e 24 196
e 25 26
e 25 27
e 25 29
e 25 30
e 25 31
e 25 34
e 25 35
e 25 36
e 25 37
e 25 38
e 25 40
e 25 42
e 25 43
e 25 49
e 25 50
e 25 53
e 25 55
e 25 59
e 25 60
e 25 63
e 25 68
e 25 71
e 25 72
e 25 75
e 25 76
e 25 79
e 25 81
e 25 82
e 25 83
e 25 86
e 25 87
e 25 91
e 25 96
e 25 97
e 25 100
e 25 103
e 25 104
e 25 106
e 25 108
e 25 114
e 25 115
e 25 119
e 25 128
e 25 137
e 25 141
e 25 144
e 25 155
e 25 161
e 25 168
e 25 184
e 25 194
e 25 195
e 26 27
e 26 29
e 26 30
e 26 31
e 26 32
e 26 33
e 26 37
e 26 38
e 26 39
e 26 42
e 26 44
e 26 45
e 26 47
e 26 48
e 26 50
e 26 51
e 26 52
e 26 54
e 26 56
e 26 58
e 26 66
e 26 68
e 26 69
e 26 70
e 26 72
e 26 74
e 26 75
e 26 82
e 26 84
e 26 87
e 26 88
e 26 92
e 26 93
e 26 109
e 26 116
e 26 123
e 26 138
e 26 141
e 26 147
e 26 150
e 26 162
e 26 164
e 26 165
e 26 166
e 26 167
e 26 173
e 26 184
e 27 28
e 27 29
e 27 30
e 27 36
e 27 38
e 27 42
e 27 46
e 27 49
e 27 50
e 27 56
e 27 60
e 27 62
e 27 66
e 27 73
e 27 84
e 27 85
e 27 95
e 27 97
e 27 98
e 27 99
e 27 101
e 27 104
e 27 106
e 27 113
e 27 130
e 27 133
e 27 136
e 27 137
e 27 139
e 27 151
e 27 154
e 27 155
e 27 166
e 27 167
e 27 170
e 27 187
e 27 189
e 27 191
e 27 192
e 28 29
e 28 30
e 28 34
e 28 35
e 28 41
e 28 44
e 28 46
e 28 47
e 28 51
e 28 57
e 28 58
e 28 60
e 28 61
e 28 63
e 28 68
e 28 71
e 28 76
e 28 80
e 28 81
e 28 87
e 28 90
e 28 91
e 28 93
e 28 94
e 28 100
e 28 101
e 28 103
e 28 113
e 28 117
e 28 118
e 28 134
e 28 135
e 28 148
e 28 149
e 28 152
e 28 158
e 28 161
e 28 163
e 28 165
e 28 170
e 28 183
e 28 186
e 28 191
e 29 30
e 29 31
e 29 34
e 29 35
e 29 37
e 29 38
e 29 39
e 29 41
e 29 42
e 29 45
e 29 47
e 29 49
e 29 51
e 29 53
e 29 54
e 29 57
e 29 60
e 29 61
e 29 62
e 29 68
e 29 76
e 29 78
e 29 83
e 29 90
e 29 91
e 29 97
e 29 99
e 29 102
e 29 104
e 29 107
e 29 114
e 29 129
e 29 132
e 29 137
e 29 138
e 29 141
e 29 144
e 29 152
e 29 156
e 29 158
e 29 164
e 29 168
e 29 175
e 29 195
e 30 33
e 30 35
e 30 38
e 30 42
e 30 43
e 30 44
e 30 45
e 30 46
e 30 51
e 30 52
e 30 56
e 30 58
e 30 61
e 30 64
e 30 65
e 30 68
e 30 76
e 30 78
e 30 83
e 30 87
e 30 91
e 30 92
e 30 98
e 30 106
e 30 107
e 30 108
e 30 116
e 30 117
e 30 120
e 30 128
e 30 130
e 30 135
e 30 138
e 30 140
e 30 145
e 30 146
e 30 152
e 30 172
e 30 174
e 30 176
e 30 179
e 30 180
e 30 184
e 30 188
e 30 191
e 31 35
e 31 36
e 31 37
e 31 38
e 31 39
e 31 40
e 31 43
e 31 44
e 31 48
e 31 52
e 31 54
e 31 55
e 31 56
e 31 57
e 31 58
e 31 59
e 31 60
e 31 66
e 31 67
e 31 70
e 31 71
e 31 74
e 31 78
e 31 79
e 31 80
e 31 92
e 31 94
e 31 98
e 31 99
e 31 104
e 31 105
e 31 107
e 31 109
e 31 111
e 31 117
e 31 118
e 31 122
e 31 124
e 31 129
e 31 133
e 31 136
e 31 142
e 31 151
e 31 153
e 31 155
e 31 159
e 31 160
e 31 162
e 31 164
e 31 170
e 31 181
e 31 182
e 31 188
e 31 191
e 32 34
e 32 35
e 32 36
e 32 38
e 32 40
e 32 41
e 32 43
e 32 44
e 32 46
e 32 47
e 32 49
e 32 50
e 32 52
e 32 54
e 32 55
e 32 61
e 32 68
e 32 69
e 32 70
e 32 75
e 32 78
e 32 83
e 32 85
e 32 86
e 32 89
e 32 91
e 32 100
e 32 109
e 32 118
e 32 119
e 32 123
e 32 124
e 32 132
e 32 136
e 32 140
e 32 141
e 32 144
e 32 148
e 32 159
e 32 160
e 32 172
e 32 178
e 32 181
e 32 182
e 32 187
e 32 195
e 33 34
e 33 35
e 33 39
e 33 42
e 33 43
e 33 45
e 33 48
e 33 51
e 33 55
e 33 57
e 33 60
e 33 62
e 33 85
e 33 88
e 33 89
e 33 92
e 33 97
e 33 102
e 33 112
e 33 113
e 33 115
e 33 117
e 33 148
e 33 149
e 33 156
e 33 163
e 33 165
e 33 189
e 34 35
e 34 38
e 34 40
e 34 44
e 34 45
e 34 49
e 34 50
e 34 64
e 34 66
e 34 77
e 34 82
e 34 90
e 34 92
e 34 93
e 34 96
e 34 102
e 34 113
e 34 121
e 34 125
e 34 127
e 34 150
e 34 164
e 34 167
e 34 172
e 34 178
e 34 180
e 34 189
e 35 40
e 35 48
e 35 53
e 35 54
e 35 70
e 35 71
e 35 74
e 35 80
e 35 82
e 35 85
e 35 91
e 35 92
e 35 100
e 35 103
e 35 106
e 35 107
e 35 108
e 35 114
e 35 116
e 35 122
e 35 132
e 35 135
e 35 139
e 35 150
e 35 154
e 35 171
e 35 177
e 35 181
e 35 185
e 35 188
e 35 192
e 35 196
e 36 41
e 36 42
e 36 44
e 36 46
e 36 48
e 36 49
e 36 52
e 36 55
e 36 56
e 36 57
e 36 60
e 36 67
e 36 78
e 36 80
e 36 88
e 36 106
e 36 107
e 36 117
e 36 125
e 36 130
e 36 159
e 36 164
e 36 166
e 36 167
e 36 171
e 36 173
e 36 176
e 36 180
e 36 185
e 37 38
e 37 39
e 37 42
e 37 46
e 37 49
e 37 54
e 37 59
e 37 64
e 37 67
e 37 72
e 37 79
e 37 81
e 37 87
e 37 102
e 37 103
e 37 119
e 37 122
e 37 142
e 37 148
e 37 154
e 37 162
e 37 167
e 37 169
e 37 182
e 37 186
e 37 190
e 37 194
e 38 40
e 38 44
e 38 47
e 38 48
e 38 50
e 38 66
e 38 69
e 38 71
e 38 79
e 38 80
e 38 81
e 38 89
e 38 91
e 38 93
e 38 94
e 38 109
e 38 133
e 38 157
e 38 165
e 38 185
e 39 47
e 39 51
e 39 55
e 39 56
e 39 58
e 39 77
e 39 78
e 39 79
e 39 80
e 39 93
e 39 96
e 39 101
e 39 102
e 39 103
e 39 108
e 39 109
e 39 147
e 39 148
e 39 149
e 39 168
e 39 169
e 39 187
e 40 43
e 40 49
e 40 50
e 40 54
e 40 55
e 40 59
e 40 60
e 40 65
e 40 70
e 40 73
e 40 77
e 40 81
e 40 82
e 40 83
e 40 87
e 40 91
e 40 93
e 40 94
e 40 99
e 40 111
e 40 116
e 40 119
e 40 123
e 40 126
e 40 128
e 40 131
e 40 137
e 40 139
e 40 140
e 40 141
e 40 143
e 40 149
e 40 160
e 40 172
e 40 175
e 40 186
e 40 193
e 41 42
e 41 43
e 41 48
e 41 49
e 41 51
e 41 52
e 41 59
e 41 68
e 41 69
e 41 70
e 41 72
e 41 73
e 41 79
e 41 80
e 41 84
e 41 87
e 41 102
e 41 111
e 41 116
e 41 118
e 41 132
e 41 162
e 41 164
e 41 166
e 41 168
e 41 180
e 41 181
e 41 192
e 42 45
e 42 47
e 42 49
e 42 51
e 42 52
e 42 54
e 42 65
e 42 68
e 42 75
e 42 79
e 42 87
e 42 88
e 42 92
e 42 98
e 42 122
e 42 131
e 42 132
e 42 135
e 42 154
e 42 158
e 42 160
e 42 192
e 42 194
e 43 44
e 43 47
e 43 49
e 43 54
e 43 57
e 43 58
e 43 62
e 43 75
e 43 76
e 43 77
e 43 81
e 43 84
e 43 98
e 43 101
e 43 105
e 43 116
e 43 119
e 43 125
e 43 130
e 43 140
e 43 141
e 43 144
e 43 145
e 43 177
e 43 180
e 44 45
e 44 54
e 44 58
e 44 60
e 44 61
e 44 64
e 44 66
e 44 67
e 44 90
e 44 102
e 44 112
e 44 120
e 44 131
e 44 135
e 44 149
e 44 150
e 44 154
e 44 161
e 44 172
e 44 176
e 44 183
e 44 186
e 44 194
e 45 46
e 45 47
e 45 48
e 45 55
e 45 56
e 45 58
e 45 60
e 45 61
e 45 62
e 45 74
e 45 79
e 45 86
e 45 89
e 45 93
e 45 96
e 45 105
e 45 116
e 45 118
e 45 130
e 45 132
e 45 133
e 45 137
e 45 138
e 45 140
e 45 143
e 45 145
e 45 148
e 45 154
e 45 166
e 45 181
e 46 48
e 46 49
e 46 51
e 46 52
e 46 59
e 46 63
e 46 65
e 46 67
e 46 73
e 46 126
e 46 127
e 46 130
e 46 136
e 46 137
e 46 141
e 46 142
e 46 147
e 46 153
e 46 165
e 47 64
e 47 71
e 47 91
e 47 99
e 47 105
e 47 109
e 47 110
e 47 118
e 47 122
e 47 138
e 47 157
e 47 170
e 47 183
e 47 187
e 48 65
e 48 70
e 48 71
e 48 74
e 48 83
e 48 84
e 48 88
e 48 97
e 48 101
e 48 121
e 48 130
e 48 132
e 48 139
e 48 142
e 48 145
e 48 160
e 48 166
e 48 196
e 49 56
e 49 57
e 49 61
e 49 63
e 49 66
e 49 67
e 49 68
e 49 72
e 49 81
e 49 83
e 49 87
e 49 93
e 49 94
e 49 95
e 49 97
e 49 99
e 49 100
e 49 102
e 49 113
e 49 118
e 49 121
e 49 122
e 49 124
e 49 133
e 49 144
e 49 146
e 49 147
e 49 154
e 49 155
e 49 157
e 49 159
e 49 168
e 49 175
e 49 176
e 49 178
e 50 51
e 50 63
e 50 66
e 50 70
e 50 74
e 50 78
e 50 80
e 50 85
e 50 90
e 50 97
e 50 104
e 50 114
e 50 120
e 50 121
e 50 130
e 50 144
e 50 162
e 50 177
e 50 178
e 50 183
e 50 184
e 50 193
e 51 53
e 51 56
e 51 59
e 51 62
e 51 64
e 51 68
e 51 76
e 51 80
e 51 83
e 51 90
e 51 101
e 51 106
e 51 107
e 51 112
e 51 126
e 51 129
e 51 141
e 51 142
e 51 165
e 51 171
e 51 173
e 51 186
e 52 57
e 52 60
e 52 67
e 52 69
e 52 79
e 52 83
e 52 84
e 52 89
e 52 91
e 52 96
e 52 104
e 52 113
e 52 114
e 52 118
e 52 126
e 52 128
e 52 131
e 52 138
e 52 143
e 52 145
e 52 152
e 52 153
e 52 162
e 52 165
e 52 172
e 52 175
e 52 177
e 52 182
e 52 185
e 52 191
e 52 194
e 52 195
e 53 67
e 53 69
e 53 72
e 53 74
e 53 76
e 53 85
e 53 89
e 53 90
e 53 120
e 53 127
e 53 131
e 53 133
e 53 153
e 53 158
e 53 167
e 53 175
e 53 182
e 53 193
e 54 58
e 54 59
e 54 62
e 54 64
e 54 68
e 54 73
e 54 77
e 54 82
e 54 83
e 54 88
e 54 89
e 54 97
e 54 104
e 54 111
e 54 121
e 54 130
e 54 137
e 54 157
e 54 177
e 54 185
e 54 193
e 55 59
e 55 60
e 55 64
e 55 73
e 55 74
e 55 85
e 55 95
e 55 107
e 55 114
e 55 135
e 55 154
e 55 179
e 55 186
e 55 193
e 56 75
e 56 77
e 56 82
e 56 88
e 56 102
e 56 109
e 56 112
e 56 119
e 56 123
e 56 125
e 56 134
e 56 152
e 56 163
e 56 170
e 56 173
e 56 183
e 56 194
e 57 58
e 57 62
e 57 63
e 57 65
e 57 70
e 57 72
e 57 76
e 57 80
e 57 85
e 57 106
e 57 108
e 57 110
e 57 143
e 57 144
e 57 146
e 57 147
e 57 152
e 57 171
e 57 177
e 57 181
e 57 182
e 57 189
e 57 193
e 58 61
e 58 63
e 58 65
e 58 80
e 58 81
e 58 87
e 58 98
e 58 114
e 58 125
e 59 61
e 59 63
e 59 67
e 59 98
e 59 112
e 59 115
e 59 119
e 59 126
e 59 127
e 59 132
e 59 134
e 59 135
e 59 142
e 59 152
e 59 154
e 59 156
e 59 160
e 59 176
e 59 182
e 59 185
e 59 194
e 60 61
e 60 65
e 60 78
e 60 79
e 60 83
e 60 86
e 60 90
e 60 91
e 60 92
e 60 108
e 60 110
e 60 118
e 60 122
e 60 134
e 60 161
e 60 167
e 60 176
e 61 62
e 61 64
e 61 65
e 61 74
e 61 75
e 61 77
e 61 84
e 61 87
e 61 89
e 61 91
e 61 92
e 61 146
e 61 165
e 61 171
e 61 181
e 61 184
e 61 196
e 62 64
e 62 66
e 62 69
e 62 73
e 62 80
e 62 83
e 62 87
e 62 88
e 62 89
e 62 93
e 62 95
e 62 98
e 62 102
e 62 105
e 62 116
e 62 138
e 62 169
e 62 178
e 62 196
e 63 73
e 63 81
e 63 84
e 63 91
e 63 112
e 63 126
e 63 142
e 63 143
e 63 144
e 63 149
e 63 153
e 63 154
e 63 166
e 63 177
e 64 70
e 64 82
e 64 84
e 64 86
e 64 103
e 64 111
e 64 123
e 64 125
e 64 130
e 64 156
e 64 172
e 64 180
e 65 70
e 65 72
e 65 78
e 65 81
e 65 106
e 65 118
e 65 120
e 65 134
e 65 153
e 65 157
e 65 159
e 65 161
e 65 163
e 65 168
e 65 185
e 66 68
e 66 69
e 66 80
e 66 86
e 66 89
e 66 92
e 66 105
e 66 110
e 66 117
e 66 121
e 66 132
e 66 142
e 66 143
e 66 148
e 66 164
e 66 165
e 66 177
e 66 181
e 66 183
e 66 184
e 67 72
e 67 82
e 67 90
e 67 91
e 67 96
e 67 102
e 67 104
e 67 105
e 67 107
e 67 109
e 67 111
e 67 117
e 67 119
e 67 126
e 67 129
e 67 130
e 67 137
e 67 150
e 67 158
e 67 162
e 67 169
e 67 170
e 67 191
e 67 196
e 68 70
e 68 75
e 68 77
e 68 79
e 68 80
e 68 93
e 68 100
e 68 105
e 68 107
e 68 112
e 68 135
e 68 142
e 68 145
e 68 152
e 68 160
e 68 166
e 68 174
e 68 175
e 68 181
e 68 186
e 69 71
e 69 74
e 69 76
e 69 99
e 69 121
e 69 194
e 70 73
e 70 74
e 70 83
e 70 94
e 70 95
e 70 99
e 70 106
e 70 115
e 70 116
e 70 120
e 70 123
e 70 134
e 70 139
e 70 145
e 70 147
e 70 162
e 70 163
e 70 166
e 70 169
e 70 172
e 70 174
e 70 175
e 71 74
e 71 76
e 71 97
e 71 101
e 71 106
e 71 111
e 71 115
e 71 117
e 71 124
e 71 126
e 71 128
e 71 129
e 71 137
e 71 146
e 71 147
e 71 160
e 71 169
e 71 171
e 71 187
e 71 188
e 72 76
e 72 88
e 72 95
e 72 100
e 72 106
e 72 110
e 72 112
e 72 123
e 72 151
e 72 159
e 72 166
e 73 76
e 73 77
e 73 81
e 73 90
e 73 92
e 73 94
e 73 108
e 73 181
e 73 190
e 74 77
e 74 85
e 74 96
e 74 97
e 74 100
e 74 113
e 74 120
e 74 129
e 74 135
e 74 136
e 74 138
e 74 143
e 74 149
e 74 153
e 74 157
e 74 161
e 74 163
e 74 187
e 74 190
e 75 95
e 75 103
e 75 112
e 75 120
e 75 136
e 75 150
e 75 163
e 75 167
e 75 170
e 75 185
e 75 187
e 76 95
e 76 115
e 76 116
e 76 146
e 76 147
e 76 149
e 76 157
e 76 170
e 77 82
e 77 95
e 77 102
e 77 103
e 77 131
e 77 172
e 77 178
e 78 83
e 78 94
e 78 96
e 78 103
e 78 135
e 78 139
e 78 147
e 78 157
e 78 159
e 78 160
e 78 163
e 78 170
e 78 182
e 78 188
e 79 82
e 79 97
e 79 107
e 79 109
e 79 131
e 79 145
e 79 155
e 79 167
e 79 176
e 79 184
e 80 81
e 80 83
e 80 86
e 80 107
e 80 126
e 80 129
e 80 138
e 80 142
e 81 144
e 81 156
e 81 165
e 81 171
e 82 84
e 82 85
e 82 88
e 82 90
e 82 100
e 82 104
e 82 108
e 82 134
e 83 84
e 83 113
e 83 121
e 83 124
e 83 127
e 83 128
e 83 145
e 83 161
e 84 107
e 84 122
e 84 125
e 84 133
e 84 145
e 84 146
e 84 147
e 84 167
e 84 168
e 84 169
e 84 177
e 84 180
e 84 186
e 84 195
e 85 96
e 85 98
e 85 105
e 85 106
e 85 112
e 85 119
e 85 129
e 85 144
e 85 155
e 85 159
e 85 165
e 85 173
e 85 177
e 85 190
e 85 191
e 85 192
e 86 100
e 86 101
e 86 103
e 86 106
e 86 118
e 86 126
e 86 145
e 86 153
e 86 155
e 86 165
e 86 172
e 86 178
e 87 90
e 87 105
e 87 114
e 87 119
e 87 122
e 87 148
e 87 171
e 87 190
e 88 89
e 88 95
e 88 114
e 88 115
e 88 119
e 88 125
e 88 134
e 88 142
e 88 156
e 88 162
e 88 173
e 89 99
e 89 131
e 89 139
e 89 147
e 89 168
e 89 180
e 89 194
e 90 95
e 90 96
e 90 101
e 90 123
e 90 135
e 90 145
e 90 150
e 90 161
e 90 175
e 90 177
e 90 178
e 91 98
e 91 101
e 91 108
e 91 115
e 91 117
e 91 119
e 91 120
e 91 126
e 91 127
e 91 133
e 91 150
e 91 158
e 91 163
e 91 169
e 91 184
e 91 187
e 91 194
e 92 94
e 92 95
e 92 122
e 92 125
e 92 136
e 92 139
e 92 144
e 92 173
e 92 181
e 93 104
e 93 109
e 93 110
e 93 132
e 93 134
e 93 151
e 93 167
e 93 171
e 94 110
e 94 111
e 94 120
e 94 121
e 94 190
e 95 98
e 95 108
e 95 113
e 95 114
e 95 117
e 95 125
e 95 138
e 95 149
e 95 154
e 95 166
e 95 195
e 96 109
e 96 118
e 96 124
e 96 127
e 96 149
e 96 182
e 96 185
e 97 110
e 97 117
e 97 142
e 97 146
e 97 150
e 98 103
e 98 110
e 98 120
e 98 129
e 99 108
e 99 115
e 99 121
e 99 124
e 99 127
e 99 131
e 99 143
e 99 165
e 99 171
e 99 182
e 100 111
e 100 122
e 100 128
e 100 129
e 100 188
e 100 192
e 101 107
e 101 137
e 101 151
e 101 174
e 101 191
e 101 195
e 102 110
e 102 111
e 102 113
e 102 114
e 102 129
e 102 139
e 102 153
e 102 158
e 102 181
e 103 104
e 103 136
e 103 144
e 103 148
e 103 157
e 103 164
e 103 176
e 103 182
e 103 195
e 104 109
e 104 128
e 104 138
e 104 149
e 104 150
e 104 161
e 104 164
e 104 176
e 104 186
e 105 125
e 105 130
e 105 138
e 105 158
e 106 114
e 106 128
e 106 140
e 106 153
e 106 155
e 106 162
e 106 178
e 106 179
e 106 190
e 107 110
e 107 125
e 107 151
e 107 153
e 107 160
e 107 177
e 107 184
e 107 188
e 108 111
e 108 128
e 108 196
e 109 112
e 109 124
e 109 136
e 109 150
e 109 170
e 109 186
e 109 196
e 110 116
e 110 123
e 110 128
e 110 134
e 110 173
e 110 180
e 110 185
e 110 192
e 110 196
e 111 119
e 111 121
e 111 122
e 111 145
e 111 165
e 111 169
e 111 174
e 111 182
e 112 131
e 112 135
e 112 166
e 112 170
e 112 171
e 112 179
e 112 187
e 112 193
e 113 137
e 113 140
e 113 147
e 114 128
e 114 140
e 114 156
e 114 174
e 114 180
e 114 185
e 114 186
e 114 190
e 114 196
e 115 123
e 115 134
e 115 141
e 115 174
e 115 176
e 115 177
e 115 179
e 115 183
e 115 187
e 115 196
e 116 140
e 116 148
e 116 161
e 116 184
e 116 189
e 116 191
e 117 134
e 117 141
e 117 148
e 117 155
e 117 173
e 117 188
e 117 192
e 118 132
e 118 141
e 118 143
e 118 149
e 118 156
e 118 159
e 118 174
e 118 175
e 118 194
e 118 196
e 119 127
e 119 141
e 119 178
e 119 187
e 119 188
e 120 139
e 120 141
e 120 170
e 121 150
e 122 123
e 122 125
e 122 127
e 122 129
e 122 132
e 122 140
e 122 146
e 122 147
e 122 156
e 122 157
e 122 160
e 122 163
e 122 165
e 122 172
e 122 175
e 122 195
e 123 138
e 123 148
e 123 152
e 123 157
e 123 187
e 124 126
e 124 143
e 124 156
e 124 180
e 125 136
e 125 144
e 125 151
e 125 153
e 125 159
e 125 179
e 125 183
e 126 135
e 126 150
e 127 173
e 127 180
e 127 187
e 127 189
e 128 129
e 128 143
e 128 151
e 128 154
e 128 159
e 128 168
e 128 170
e 128 173
e 128 179
e 128 193
e 129 138
e 130 131
e 130 148
e 130 160
e 131 149
e 131 155
e 132 169
e 132 174
e 132 183
e 133 145
e 133 153
e 133 175
e 134 193
e 135 164
e 135 166
e 135 185
e 136 138
e 136 158
e 136 163
e 136 164
e 136 183
e 137 155
e 137 193
e 138 151
e 138 169
e 138 182
e 138 183
e 138 189
e 138 192
e 139 193
e 140 151
e 141 146
e 141 151
e 141 153
e 141 156
e 141 157
e 141 158
e 141 174
e 141 176
e 141 178
e 141 186
e 141 188
e 142 162
e 142 168
e 143 168
e 143 196
e 144 152
e 144 172
e 144 179
e 144 187
e 145 154
e 145 155
e 145 168
e 145 173
e 145 191
e 145 193
e 146 150
e 146 171
e 147 158
e 147 190
e 148 149
e 148 175
e 149 152
e 149 161
e 149 169
e 150 160
e 150 162
e 150 169
e 150 189
e 151 169
e 152 161
e 152 189
e 153 189
e 154 173
e 154 195
e 155 171
e 155 192
e 156 195
e 157 163
e 157 179
e 157 192
e 158 188
e 158 189
e 158 195
e 159 161
e 159 183
e 159 184
e 160 179
e 161 186
e 162 173
e 163 171
e 163 176
e 163 184
e 163 185
e 165 174
e 165 176
e 166 178
e 166 179
e 166 188
e 166 193
e 167 170
e 167 182
e 167 184
e 168 181
e 170 180
e 171 179
e 171 189
e 172 196
e 174 186
e 175 182
e 177 190
e 180 185
e 184 192
e 186 193
e 190 194
